
Log started (V12.6.3.0) Wed Mar 28 16:37:43 2018


Problem 'parc_complet.lp-pulp.lp' read.
Read time = 0.05 sec. (4.90 ticks)
New value for mixed integer optimality gap tolerance: 0.01
New value for time limit in seconds: 240
Tried aggregator 4 times.
MIP Presolve eliminated 6087 rows and 918 columns.
Aggregator did 3541 substitutions.
Reduced MIP has 44285 rows, 15893 columns, and 134011 nonzeros.
Reduced MIP has 12362 binaries, 0 generals, 0 SOSs, and 0 indicators.
Presolve time = 0.16 sec. (189.44 ticks)
Found incumbent of value 5.1042682e+07 after 0.28 sec. (294.69 ticks)
Probing fixed 658 vars, tightened 276 bounds.
Probing time = 0.33 sec. (136.74 ticks)
Cover probing fixed 14 vars, tightened 215 bounds.
Tried aggregator 1 time.
MIP Presolve eliminated 6412 rows and 1324 columns.
MIP Presolve modified 285 coefficients.
Reduced MIP has 37873 rows, 14569 columns, and 119899 nonzeros.
Reduced MIP has 11039 binaries, 652 generals, 0 SOSs, and 0 indicators.
Presolve time = 0.09 sec. (88.14 ticks)
Probing time = 0.04 sec. (6.67 ticks)
Clique table members: 28897.
MIP emphasis: balance optimality and feasibility.
MIP search method: dynamic search.
Parallel mode: deterministic, using up to 8 threads.
Root relaxation solution time = 1.71 sec. (1008.77 ticks)

        Nodes                                         Cuts/
   Node  Left     Objective  IInf  Best Integer    Best Bound    ItCnt     Gap

*     0+    0                       5.10427e+07  -2.81142e+07           155.08%
*     0+    0                     -3187073.7682  -2.81142e+07           782.13%
      0     0  -1.92651e+07   707 -3187073.7682  -1.92651e+07    11469  504.48%
      0     0  -1.92590e+07   701 -3187073.7682     Cuts: 391    12586  504.28%
*     0+    0                     -6971503.8181  -1.92590e+07           176.25%
      0     0  -1.92530e+07   717 -6971503.8181     Cuts: 197    13551  176.17%
      0     0  -1.92529e+07   775 -6971503.8181     Cuts: 112    13814  176.17%
*     0+    0                     -7474467.5026  -1.92529e+07           157.58%
      0     0  -1.92529e+07   817 -7474467.5026     Cuts: 100    13980  157.58%
      0     2  -1.92529e+07   817 -7474467.5026  -1.92529e+07    13980  157.58%
Elapsed time = 10.15 sec. (7717.18 ticks, tree = 0.01 MB, solutions = 4)
      1     3  -1.92438e+07   585 -7474467.5026  -1.92529e+07    15530  157.58%
      2     4  -1.92339e+07   566 -7474467.5026  -1.92529e+07    16333  157.58%
      3     5  -1.92389e+07   735 -7474467.5026  -1.92529e+07    18343  157.58%
      4     6  -1.92343e+07   726 -7474467.5026  -1.92529e+07    18451  157.58%
      5     7  -1.92335e+07   739 -7474467.5026  -1.92529e+07    18565  157.58%
      6     8  -1.92322e+07   521 -7474467.5026  -1.92437e+07    18639  157.46%
      7     9  -1.92323e+07   768 -7474467.5026  -1.92437e+07    18730  157.46%
      8    10  -1.92318e+07   794 -7474467.5026  -1.92437e+07    18785  157.46%
      9    11  -1.92328e+07   798 -7474467.5026  -1.92437e+07    18832  157.46%
     10    12  -1.92317e+07   791 -7474467.5026  -1.92437e+07    18838  157.46%
Elapsed time = 11.64 sec. (8899.07 ticks, tree = 0.01 MB, solutions = 4)
    142   144  -1.91573e+07   588 -7474467.5026  -1.92437e+07    28927  157.46%
    150   152  -1.91606e+07   537 -7474467.5026  -1.92437e+07    29746  157.46%
    154   156  -1.92266e+07   460 -7474467.5026  -1.92437e+07    30061  157.46%
    158   160  -1.91605e+07   536 -7474467.5026  -1.92437e+07    30187  157.46%
    160   162  -1.92035e+07   676 -7474467.5026  -1.92437e+07    30318  157.46%
    161   163  -1.92291e+07   549 -7474467.5026  -1.92437e+07    30428  157.46%
    162   164  -1.92263e+07   488 -7474467.5026  -1.92437e+07    32237  157.46%
    166   168  -1.91605e+07   525 -7474467.5026  -1.92437e+07    32424  157.46%
    167   169  -1.92124e+07   736 -7474467.5026  -1.92437e+07    32559  157.46%
    168   170  -1.92024e+07   661 -7474467.5026  -1.92437e+07    32622  157.46%
Elapsed time = 15.57 sec. (9881.20 ticks, tree = 0.01 MB, solutions = 4)
    359   361  -1.91832e+07   574 -7474467.5026  -1.92437e+07    46129  157.46%
    361   363  -1.91383e+07   477 -7474467.5026  -1.92437e+07    46251  157.46%
    365   367  -1.92263e+07   434 -7474467.5026  -1.92437e+07    46506  157.46%
    367   369  -1.91987e+07   562 -7474467.5026  -1.92437e+07    46567  157.46%
    369   371  -1.91374e+07   483 -7474467.5026  -1.92437e+07    46793  157.46%
    371   373  -1.91960e+07   568 -7474467.5026  -1.92437e+07    46829  157.46%
    373   375  -1.92263e+07   426 -7474467.5026  -1.92437e+07    46891  157.46%
    374   376  -1.91996e+07   597 -7474467.5026  -1.92437e+07    46931  157.46%
    375   377  -1.91987e+07   559 -7474467.5026  -1.92437e+07    46944  157.46%
    376   378  -1.92045e+07   538 -7474467.5026  -1.92437e+07    46996  157.46%
Elapsed time = 18.26 sec. (10856.83 ticks, tree = 50.20 MB, solutions = 4)
    526   526  -1.91377e+07   523 -7474467.5026  -1.92437e+07    55748  157.46%
    534   534  -1.91378e+07   483 -7474467.5026  -1.92437e+07    56087  157.46%
    535   535  -1.91882e+07   461 -7474467.5026  -1.92437e+07    56183  157.46%
    542   542  -1.91360e+07   530 -7474467.5026  -1.92437e+07    56623  157.46%
    543   543  -1.91881e+07   508 -7474467.5026  -1.92437e+07    56685  157.46%
    544   544  -1.91933e+07   464 -7474467.5026  -1.92437e+07    56697  157.46%
    545   545  -1.92266e+07   408 -7474467.5026  -1.92437e+07    56702  157.46%
    550   550  -1.91373e+07   490 -7474467.5026  -1.92437e+07    56852  157.46%
    551   551  -1.91882e+07   470 -7474467.5026  -1.92437e+07    56863  157.46%
    552   552  -1.91931e+07   505 -7474467.5026  -1.92437e+07    56938  157.46%
Elapsed time = 21.44 sec. (11838.97 ticks, tree = 103.36 MB, solutions = 4)
    695   695  -1.91860e+07   439 -7474467.5026  -1.92437e+07    63052  157.46%
    803   801  -1.92251e+07   364 -7474467.5026  -1.92437e+07    66008  157.46%
    804   802  -1.91931e+07   279 -7474467.5026  -1.92437e+07    66017  157.46%
    805   803  -1.91964e+07   307 -7474467.5026  -1.92437e+07    66044  157.46%
    806   804  -1.92027e+07   405 -7474467.5026  -1.92437e+07    66189  157.46%
    807   805  -1.91362e+07   452 -7474467.5026  -1.92437e+07    66200  157.46%
    808   806  -1.91861e+07   445 -7474467.5026  -1.92437e+07    66285  157.46%
    809   807  -1.91899e+07   508 -7474467.5026  -1.92437e+07    66376  157.46%
    810   808  -1.92261e+07   330 -7474467.5026  -1.92437e+07    66379  157.46%
    811   809  -1.92251e+07   371 -7474467.5026  -1.92437e+07    66400  157.46%
Elapsed time = 24.68 sec. (12870.47 ticks, tree = 213.79 MB, solutions = 4)
   1035  1031  -1.92211e+07   387 -7474467.5026  -1.92437e+07    75506  157.46%
   1043  1037  -1.92210e+07   409 -7474467.5026  -1.92437e+07    75865  157.46%
   1047  1041  -1.91345e+07   404 -7474467.5026  -1.92437e+07    75959  157.46%
   1051  1045  -1.92211e+07   398 -7474467.5026  -1.92437e+07    76145  157.46%
   1055  1049  -1.91345e+07   397 -7474467.5026  -1.92437e+07    76263  157.46%
   1059  1053  -1.92210e+07   418 -7474467.5026  -1.92437e+07    76449  157.46%
   1063  1057  -1.91345e+07   402 -7474467.5026  -1.92437e+07    76676  157.46%
   1067  1061  -1.92172e+07   377 -7474467.5026  -1.92437e+07    77156  157.46%
   1071  1065  -1.91345e+07   396 -7474467.5026  -1.92437e+07    77307  157.46%
   1075  1069  -1.92163e+07   356 -7474467.5026  -1.92437e+07    77483  157.46%
Elapsed time = 29.01 sec. (14165.40 ticks, tree = 294.34 MB, solutions = 4)
   1560  1542  -1.91317e+07   320 -7474467.5026  -1.92437e+07    90767  157.46%
   1568  1550  -1.91317e+07   338 -7474467.5026  -1.92437e+07    90998  157.46%
   1571  1553  -1.92185e+07   213 -7474467.5026  -1.92437e+07    91060  157.46%
   1572  1554  -1.92154e+07   382 -7474467.5026  -1.92437e+07    91092  157.46%
   1573  1555  -1.91887e+07   160 -7474467.5026  -1.92437e+07    91128  157.46%
   1576  1558  -1.91317e+07   307 -7474467.5026  -1.92437e+07    91240  157.46%
   1579  1561  -1.92185e+07   261 -7474467.5026  -1.92437e+07    91298  157.46%
   1580  1562  -1.92154e+07   392 -7474467.5026  -1.92437e+07    91302  157.46%
   1581  1563  -1.91888e+07   141 -7474467.5026  -1.92437e+07    91303  157.46%
   1582  1564  -1.91938e+07   209 -7474467.5026  -1.92437e+07    91307  157.46%
Elapsed time = 32.80 sec. (15122.28 ticks, tree = 479.24 MB, solutions = 4)
*  1940+ 1273                      -1.00034e+07  -1.92437e+07            92.37%
*  1940+  848                      -1.14314e+07  -1.92437e+07            68.34%
*  1940+  565                      -1.17891e+07  -1.92437e+07            63.23%
*  1940+  376                      -1.18547e+07  -1.92437e+07            62.33%
*  1940+  250                      -1.18550e+07  -1.92437e+07            62.32%
*  1940+  166                      -1.18553e+07  -1.92437e+07            62.32%
*  1940+  110                      -1.25761e+07  -1.92437e+07            53.02%
*  1940+   73                      -1.25912e+07  -1.92437e+07            52.83%
*  1940+   48                      -1.25943e+07  -1.92437e+07            52.80%
   1940    49  -1.92526e+07   841  -1.25943e+07  -1.92437e+07   116147   52.80%
   1941    50  -1.92521e+07   833  -1.25943e+07  -1.92437e+07   117185   52.80%
   1942    51  -1.92491e+07   798  -1.25943e+07  -1.92437e+07   118641   52.80%
   1943    52  -1.92487e+07   773  -1.25943e+07  -1.92437e+07   118898   52.80%
   1944    53  -1.92376e+07   688  -1.25943e+07  -1.92437e+07   120451   52.80%
   1945    53  -1.92433e+07   697  -1.25943e+07  -1.92437e+07   122354   52.80%
   1946    54  -1.92140e+07   766  -1.25943e+07  -1.92437e+07   123281   52.80%
   1947    54  -1.92340e+07   691  -1.25943e+07  -1.92437e+07   123374   52.80%
   1948    55  -1.92428e+07   700  -1.25943e+07  -1.92437e+07   123402   52.80%
   1949    56  -1.92122e+07   631  -1.25943e+07  -1.92437e+07   123546   52.80%
Elapsed time = 73.07 sec. (43411.78 ticks, tree = 19.61 MB, solutions = 13)
   1950    57  -1.92478e+07   759  -1.25943e+07  -1.92437e+07   124187   52.80%
   1951    58  -1.92336e+07   689  -1.25943e+07  -1.92437e+07   124279   52.80%
   1952    59  -1.92419e+07   708  -1.25943e+07  -1.92437e+07   124650   52.80%
   1953    60  -1.92120e+07   787  -1.25943e+07  -1.92437e+07   124895   52.80%
   1954    60  -1.92120e+07   633  -1.25943e+07  -1.92437e+07   124938   52.80%
   1955    60  -1.92064e+07   612  -1.25943e+07  -1.92437e+07   125488   52.80%
   1956    60  -1.92478e+07   788  -1.25943e+07  -1.92437e+07   126966   52.80%
   1957    60  -1.92324e+07   687  -1.25943e+07  -1.92437e+07   128666   52.80%
   1958    60  -1.92416e+07   678  -1.25943e+07  -1.92437e+07   130045   52.80%
   1959    60  -1.91915e+07   756  -1.25943e+07  -1.92437e+07   132030   52.80%
Elapsed time = 81.36 sec. (47823.87 ticks, tree = 16.99 MB, solutions = 13)
   1962    61  -1.92476e+07   759  -1.25943e+07  -1.92437e+07   136796   52.80%
   1963    61  -1.92316e+07   675  -1.25943e+07  -1.92437e+07   136904   52.80%
   1964    61  -1.92413e+07   680  -1.25943e+07  -1.92437e+07   137077   52.80%
   1965    62  -1.92084e+07   739  -1.25943e+07  -1.92437e+07   138791   52.80%
   1966    62  -1.92065e+07   656  -1.25943e+07  -1.92437e+07   138812   52.80%
   1967    62  -1.92008e+07   638  -1.25943e+07  -1.92437e+07   138916   52.80%
*  1968+   49                      -1.30958e+07  -1.92437e+07            46.95%
*  1968+   41                      -1.31560e+07  -1.92437e+07            46.27%
*  1968+   36                      -1.31602e+07  -1.92437e+07            46.23%
*  1968+   33                      -1.31699e+07  -1.92437e+07            46.12%
*  1968+   30                      -1.31700e+07  -1.92437e+07            46.12%
   1968    31  -1.92310e+07   714  -1.31700e+07  -1.92437e+07   140070   46.12%
   1969    32  -1.91713e+07   674  -1.31700e+07  -1.92437e+07   142206   46.12%
   1970    33  -1.92469e+07   806  -1.31700e+07  -1.92437e+07   142838   46.12%
   1973    35  -1.92468e+07   802  -1.31700e+07  -1.92437e+07   143197   46.12%
Elapsed time = 90.83 sec. (52022.30 ticks, tree = 0.01 MB, solutions = 21)
   2366   428  -1.92427e+07   707  -1.31700e+07  -1.92437e+07   181831   46.12%
   2371   433  -1.91814e+07   498  -1.31700e+07  -1.92437e+07   182565   46.12%
   2372   434  -1.92008e+07   550  -1.31700e+07  -1.92437e+07   182688   46.12%
   2374   436  -1.92425e+07   725  -1.31700e+07  -1.92437e+07   183159   46.12%
   2379   441  -1.91820e+07   466  -1.31700e+07  -1.92437e+07   183745   46.12%
   2380   442  -1.92005e+07   554  -1.31700e+07  -1.92437e+07   183788   46.12%
   2382   444  -1.92424e+07   705  -1.31700e+07  -1.92437e+07   184147   46.12%
   2387   449  -1.91819e+07   483  -1.31700e+07  -1.92437e+07   184319   46.12%
   2388   450  -1.92003e+07   552  -1.31700e+07  -1.92437e+07   184404   46.12%
   2390   452  -1.92421e+07   746  -1.31700e+07  -1.92437e+07   184701   46.12%
Elapsed time = 105.00 sec. (56469.02 ticks, tree = 4.52 MB, solutions = 21)
   3349  1388  -1.91944e+07   408  -1.31700e+07  -1.92437e+07   221820   46.12%
   3357  1396  -1.91944e+07   405  -1.31700e+07  -1.92437e+07   222063   46.12%
   3365  1404  -1.91939e+07   416  -1.31700e+07  -1.92437e+07   222208   46.12%
   3373  1412  -1.91943e+07   404  -1.31700e+07  -1.92437e+07   222384   46.12%
   3381  1420  -1.91942e+07   394  -1.31700e+07  -1.92437e+07   222571   46.12%
   3389  1428  -1.91941e+07   391  -1.31700e+07  -1.92437e+07   222662   46.12%
   3397  1434    infeasible        -1.31700e+07  -1.92437e+07   222775   46.12%
   3405  1442  -1.91941e+07   390  -1.31700e+07  -1.92437e+07   222867   46.12%
   3413  1450  -1.91941e+07   389  -1.31700e+07  -1.92437e+07   223196   46.12%
   3421  1458  -1.91940e+07   381  -1.31700e+07  -1.92437e+07   223413   46.12%
Elapsed time = 117.74 sec. (60382.81 ticks, tree = 13.22 MB, solutions = 21)
*  3939+ 1952                      -1.31810e+07  -1.92437e+07            46.00%
   4166  2181  -1.92184e+07   567  -1.31810e+07  -1.92437e+07   250929   46.00%
   4174  2189  -1.92184e+07   567  -1.31810e+07  -1.92437e+07   251013   46.00%
   4182  2197  -1.92172e+07   570  -1.31810e+07  -1.92437e+07   251122   46.00%
   4190  2203  -1.92172e+07   574  -1.31810e+07  -1.92437e+07   251290   46.00%
   4198  2211  -1.92158e+07   573  -1.31810e+07  -1.92437e+07   251853   46.00%
   4206  2219  -1.92148e+07   568  -1.31810e+07  -1.92437e+07   251971   46.00%
   4214  2227  -1.92154e+07   568  -1.31810e+07  -1.92437e+07   252366   46.00%
   4222  2235  -1.92143e+07   503  -1.31810e+07  -1.92437e+07   252831   46.00%
   4230  2243  -1.92148e+07   527  -1.31810e+07  -1.92437e+07   253227   46.00%
   4238  2251  -1.92143e+07   490  -1.31810e+07  -1.92437e+07   253557   46.00%
Elapsed time = 129.84 sec. (64477.07 ticks, tree = 20.77 MB, solutions = 22)
*  5299+ 3290                      -1.32052e+07  -1.92437e+07            45.73%
   5326  3319  -1.92188e+07   742  -1.32052e+07  -1.92437e+07   287807   45.73%
   5334  3327  -1.92188e+07   737  -1.32052e+07  -1.92437e+07   288325   45.73%
   5342  3335  -1.92178e+07   709  -1.32052e+07  -1.92437e+07   288449   45.73%
   5347  3340  -1.91351e+07   155  -1.32052e+07  -1.92437e+07   288564   45.73%
   5350  3343  -1.92178e+07   683  -1.32052e+07  -1.92437e+07   288671   45.73%
   5355  3348  -1.91348e+07   147  -1.32052e+07  -1.92437e+07   288772   45.73%
   5358  3351  -1.92146e+07   674  -1.32052e+07  -1.92437e+07   288823   45.73%
   5362  3355  -1.91887e+07   242  -1.32052e+07  -1.92437e+07   289142   45.73%
   5363  3356  -1.91349e+07   159  -1.32052e+07  -1.92437e+07   289158   45.73%
   5366  3359  -1.92146e+07   672  -1.32052e+07  -1.92437e+07   289169   45.73%
Elapsed time = 142.72 sec. (68452.20 ticks, tree = 34.82 MB, solutions = 22)
*  6729+ 4706                      -1.34572e+07  -1.92437e+07            43.00%
*  6729+ 4706                      -1.36489e+07  -1.92437e+07            40.99%
*  6729+ 4706                      -1.89185e+07  -1.92437e+07             1.72%
*  6729+ 4706                      -1.89220e+07  -1.92437e+07             1.70%
*  6729+ 4706                      -1.89522e+07  -1.92437e+07             1.54%
   6729  4708  -1.91973e+07    78  -1.89522e+07  -1.92437e+07   323788    1.54%
*  6787+ 4764                      -1.91225e+07  -1.92437e+07             0.63%
   6858  4834  -1.91920e+07   129  -1.91225e+07  -1.92437e+07   326519    0.63%
   6869  4845  -1.91633e+07    91  -1.91225e+07  -1.92437e+07   326658    0.63%
   6874  4848  -1.91633e+07    91  -1.91225e+07  -1.92437e+07   326794    0.63%
   6879  4853  -1.91624e+07   106  -1.91225e+07  -1.92437e+07   326926    0.63%
   6880  4854  -1.91641e+07    90  -1.91225e+07  -1.92437e+07   326931    0.63%
   6967  4941  -1.91322e+07   120  -1.91225e+07  -1.92437e+07   328785    0.63%
   6970  4944  -1.91302e+07   115  -1.91225e+07  -1.92437e+07   328944    0.63%
   6990  4964  -1.91879e+07    96  -1.91225e+07  -1.92437e+07   329186    0.63%
   6992  4966  -1.91879e+07    97  -1.91225e+07  -1.92437e+07   329190    0.63%
Elapsed time = 165.07 sec. (72276.08 ticks, tree = 47.72 MB, solutions = 23)

GUB cover cuts applied:  2
Clique cuts applied:  4
Cover cuts applied:  1
Implied bound cuts applied:  16
Flow cuts applied:  37
Mixed integer rounding cuts applied:  90
Zero-half cuts applied:  13
Lift and project cuts applied:  9
Gomory fractional cuts applied:  27

Root node processing (before b&c):
  Real time             =   10.02 sec. (7605.92 ticks)
Parallel b&c, 8 threads:
  Real time             =  155.08 sec. (77900.71 ticks)
  Sync time (average)   =   32.60 sec.
  Wait time (average)   =   32.87 sec.
                          ------------
Total (root+branch&cut) =  165.10 sec. (85506.63 ticks)

Solution pool: 34 solutions saved.

MIP - Integer optimal, tolerance (0.01/1e-06):  Objective = -1.9122505095e+07
Current MIP best bound = -1.9243662232e+07 (gap = 121157, 0.63%)
Solution time =  165.10 sec.  Iterations = 329216  Nodes = 7005 (4927)
Deterministic time = 85506.69 ticks  (517.91 ticks/sec)

MILP problem relaxed to LP with fixed integer variables using
incumbent solution.
Parallel mode: deterministic, using up to 8 threads for concurrent optimization.
Tried aggregator 1 time.
LP Presolve eliminated 53725 rows and 19848 columns.
Aggregator did 95 substitutions.
Reduced LP has 93 rows, 409 columns, and 501 nonzeros.
Presolve time = 0.01 sec. (16.73 ticks)

Iteration log . . .
Iteration:     1   Dual objective     =     -21103806.507301
Iteration:    65   Dual objective     =     -19458356.400177
Reinitializing dual norms . . .

Dual simplex solved model.


Dual simplex - Optimal:  Objective = -1.9122505095e+07
Solution time =    0.03 sec.  Iterations = 105 (0)
Deterministic time = 35.03 ticks  (1151.10 ticks/sec)


Solution written to file 'parc_complet.lp-pulp.sol'.
